300
75 75
1 52 790
2 52 273
3 52 846
4 51 87
5 51 675
6 51 362
7 51 225
8 51 995
9 51 841
10 51 791
11 51 727
12 51 94
13 50 615
14 50 604
15 50 482
16 50 542
17 50 480
18 50 794
19 50 883
20 50 240
21 50 69
22 49 647
23 49 421
24 49 472
25 49 624
26 49 940
27 49 223
28 48 792
29 48 57
30 48 659
31 48 568
32 48 965
33 48 573
34 48 316
35 47 890
36 47 243
37 47 793
38 46 883
39 46 816
40 46 77
41 46 385
42 46 984
43 46 981
44 46 321
45 45 640
46 45 395
47 45 762
48 45 576
49 45 560
50 45 320
51 44 911
52 44 707
53 44 198
54 44 336
55 44 358
56 44 646
57 44 116
58 44 991
59 44 285
60 43 909
61 43 519
62 43 271
63 43 441
64 43 638
65 43 236
66 43 419
67 43 239
68 42 390
69 42 955
70 42 560
71 42 719
72 42 875
73 42 436
74 41 773
75 41 562
76 41 432
77 41 798
78 41 858
79 41 959
80 41 484
81 40 333
82 40 27
83 40 311
84 40 588
85 39 211
86 39 835
87 39 992
88 38 535
89 38 95
90 38 859
91 38 847
92 38 462
93 37 461
94 37 479
95 37 246
96 37 512
97 36 963
98 36 363
99 36 945
100 36 948
101 35 1
102 35 726
103 35 630
104 35 877
105 35 101
106 35 128
107 34 909
108 34 118
109 34 750
110 33 158
111 33 423
112 33 700
113 33 398
114 33 651
115 33 710
116 32 571
117 32 318
118 32 51
119 32 617
120 32 975
121 32 341
122 32 822
123 31 959
124 31 391
125 31 182
126 31 983
127 31 531
128 31 936
129 30 798
130 30 935
131 30 203
132 30 237
133 30 289
134 29 28
135 29 495
136 29 342
137 29 275
138 29 238
139 28 883
140 28 597
141 28 364
142 28 633
143 28 100
144 28 844
145 28 937
146 28 134
147 28 665
148 27 519
149 27 989
150 27 924
151 27 923
152 27 496
153 27 610
154 27 144
155 26 416
156 26 400
157 26 608
158 26 252
159 26 730
160 26 752
161 26 669
162 26 528
163 26 675
164 25 481
165 25 643
166 25 536
167 25 188
168 25 367
169 24 486
170 24 106
171 24 728
172 24 102
173 24 173
174 24 73
175 24 473
176 23 298
177 23 168
178 23 550
179 22 304
180 22 380
181 22 626
182 22 0
183 22 699
184 22 842
185 22 930
186 22 887
187 22 435
188 22 321
189 22 88
190 21 535
191 21 211
192 21 614
193 21 679
194 21 190
195 21 382
196 21 254
197 21 294
198 21 470
199 21 70
200 20 149
201 20 360
202 20 664
203 20 328
204 20 100
205 20 665
206 20 561
207 19 854
208 19 693
209 19 110
210 19 134
211 18 591
212 18 29
213 18 659
214 18 393
215 18 186
216 18 623
217 18 611
218 18 775
219 17 87
220 17 680
221 17 32
222 17 929
223 17 515
224 17 276
225 17 243
226 17 434
227 17 481
228 17 904
229 16 738
230 16 551
231 16 529
232 16 886
233 16 175
234 16 28
235 16 374
236 16 872
237 15 409
238 15 751
239 15 604
240 15 8
241 15 688
242 15 733
243 14 796
244 14 536
245 14 784
246 14 880
247 14 677
248 14 455
249 14 324
250 14 179
251 13 883
252 13 313
253 13 236
254 13 799
255 13 702
256 13 933
257 13 411
258 13 244
259 12 669
260 12 462
261 12 804
262 12 19
263 12 573
264 12 645
265 12 147
266 12 72
267 12 291
268 12 638
269 12 565
270 12 77
271 11 998
272 11 443
273 11 367
274 11 76
275 11 891
276 11 846
277 10 640
278 10 221
279 10 86
280 10 93
281 10 206
282 10 860
283 9 343
284 9 509
285 9 649
286 9 618
287 9 685
288 9 921
289 9 719
290 8 303
291 8 868
292 8 347
293 8 706
294 8 285
295 7 442
296 7 209
297 7 321
298 7 391
299 7 234
300 7 746
